1552
49 83 42 76 13 98 37 30 8 46 92 89 75 38 67 27 22 1 21 64 52 57 3 35 48 72 90 97 39 2 94 81 41 60 36 43 31 62 58 26 19 63 10 14 68 55 28 99 61 17 95 51 20 71 69 84 65 88 4 15 33 85 9 5 54 11 73 70 16 78 53 23 18 82 32 74 86 7 66 77 87 91 44 29 56 12 47 96 40 6 50 34 79 80 45 25 93 59 24 
